data;

set J := 1 2 3 4 5 6 7 8 9 10;
set I := 1 2 3 4 5 6 7 8 9;

param p := 
    1 146
    2 114
    3 33
    4 53
    5 98
    6 162
    7 163
    8 101
    9 51
    10 89;

param r := 
    1 51
    2 139
    3 79
    4 74
    5 80
    6 18
    7 86
    8 125
    9 80
    10 152;

param T := 169;
param R := 179;
param M := 1000000;

end;